set group Na charge +1
set group Cl charge -1
pair_style born/coul/long 9.0
pair_coeff 1 1 0.2637 0.317 2.340 1.048553 -0.49935 # Na-Na
pair_coeff 1 2 0.21096 0.317 2.755 6.99055303 -8.6757 # Cl Na
pair_coeff 2 2 0.158221 0.327 3.170 75.0544 -150.7325 #	Cl-Cl  
pair_modify tail yes
kspace_style ewald 1e-5