# run an NVT sim at equilibrium lattice constant to estimate mean squared displacement to estimate spring constants

log MSD_NVT_T-$T.log
units metal
atom_style charge
boundary p p p

# cation lattice
lattice fcc ${lc}
region box block 0 $s 0 $s 0 $s 
create_box 2 box
create_atoms 1 box

# anion lattice
lattice fcc ${lc} origin 0.5 0.0 0.0
create_atoms 2 box

group Na type 1
group Cl type 2

mass 1 22.9898
mass 2 35.4527
set group Na charge +1
set group Cl charge -1

pair_style born/coul/dsf 0.25 9.0
pair_coeff 1 1 0.2637 0.317 2.340 1.048553 -0.49935 # Na-Na
pair_coeff 1 2 0.21096 0.317 2.755 6.99055303 -8.6757 # Cl Na
pair_coeff 2 2 0.158221 0.327 3.170 75.0544 -150.7325 #	Cl-Cl  
pair_modify tail yes

compute msdNa Na msd # com yes
compute msdCl Cl msd # com yes

thermo 50
thermo_style custom step time spcpu pe vol lx density press temp c_msdNa[4] c_msdCl[4]
thermo_modify norm yes
dump 0 all custom 5000 MSD_T-$T.dump id type x y z

velocity all create ${T}. ${seed}
timestep 0.001

fix NVT all nvt temp ${T} ${T} $(20*dt)
run 1000000
# plot out MSD as a function of temperature for each element to sanity check
# for solids the mean squared displacement should remain constant over the course of a simulation

